num_servers = 10;
sid = [0, 1, 2, 3, 4, 5, 6, 7, 8, 9];
scpu = [5, 5, 5, 5, 5, 5, 5, 5, 5, 10];
sram = [9, 10, 16, 9, 6, 9, 8, 16, 6, 10];

num_vms = 31;
vjob = [0, 1, 2, 2, 2, 2, 2, 3, 4, 4, 5, 5, 5, 5, 5, 6, 6, 6, 6, 6, 7, 8, 9, 10, 11, 11, 11, 11, 11, 11, 11];
vindex = [0, 0, 0, 1, 2, 3, 4, 0, 0, 1, 0, 1, 2, 3, 4, 0, 1, 2, 3, 4, 0, 0, 0, 0, 0, 1, 2, 3, 4, 5, 6];
vcpu = [1, 1, 1, 1, 1, 1, 1, 1, 1, 1, 1, 1, 1, 1, 1, 1, 1, 1, 1, 1, 1, 1, 1, 1, 1, 1, 1, 1, 1, 1, 1];
vram = [1, 1, 1, 1, 1, 1, 1, 1, 1, 1, 1, 1, 1, 1, 1, 1, 1, 1, 1, 1, 1, 1, 1, 1, 1, 1, 1, 1, 1, 1, 1];
vac = [true, true, true, true, true, true, true, true, true, true, true, true, true, true, true, true, true, true, true, true, true, true, true, true, true, true, true, true, true, true, true];
